0 1 242 0 1 
0 2 646 0 1 10 2 
0 3 853 0 1 10 7 3 
0 5 1060 0 1 10 7 9 5 
0 6 1026 0 1 10 8 6 
0 7 636 0 1 10 7 
0 8 785 0 1 10 8 
0 9 810 0 1 10 7 9 
0 10 451 0 1 10 
1 2 404 1 10 2 
1 3 612 1 10 7 3 
1 5 818 1 10 7 9 5 
1 6 784 1 10 8 6 
1 7 393 1 10 7 
1 8 544 1 10 8 
1 9 568 1 10 7 9 
1 10 208 1 10 
2 3 325 2 11 3 
2 5 710 2 7 9 5 
2 6 765 2 7 9 6 
2 7 285 2 7 
2 8 530 2 10 8 
2 9 460 2 7 9 
2 10 195 2 10 
3 5 645 3 7 9 5 
3 6 700 3 7 9 6 
3 7 219 3 7 
3 8 739 3 7 10 8 
3 9 396 3 7 9 
3 10 404 3 7 10 
5 6 554 5 9 6 
5 7 427 5 9 7 
5 8 328 5 8 
5 9 250 5 9 
5 10 610 5 9 7 10 
6 7 480 6 9 7 
6 8 242 6 8 
6 9 304 6 9 
6 10 577 6 8 10 
7 8 519 7 10 8 
7 9 176 7 9 
7 10 184 7 10 
8 9 546 8 6 9 
8 10 335 8 10 
9 10 361 9 7 10 
